1
150
81
20 2
21 7
22 7
23 5
24 7
25 1
26 5
27 11
28 4
29 5
30 6
31 8
32 8
33 11
34 5
35 6
36 8
37 7
38 8
39 6
40 4
41 3
42 4
43 4
44 5
45 8
46 4
47 6
48 7
49 11
50 5
51 8
52 6
53 10
54 7
55 3
56 12
57 9
58 5
59 5
60 3
61 9
62 4
63 4
64 3
65 6
66 6
67 7
68 6
69 5
70 8
71 4
72 6
73 7
74 11
75 9
76 7
77 7
78 5
79 8
80 5
81 5
82 4
83 4
84 5
85 15
86 5
87 4
88 6
89 2
90 2
91 8
92 7
93 7
94 6
95 6
96 7
97 5
98 6
99 8
100 5
